12
0 24 85 11 26 5 5 37 44 64 100 39 
20 0 87 33 64 32 13 84 12 99 53 87 
7 74 0 56 79 90 78 44 13 62 14 73 
17 59 54 0 57 6 54 60 7 47 14 99 
16 2 7 61 0 54 27 32 97 8 11 99 
68 42 34 47 31 0 52 65 45 46 21 16 
46 76 2 19 52 83 0 68 35 74 36 86 
52 25 94 31 37 56 8 0 24 87 80 97 
96 17 17 40 43 59 79 34 0 84 58 72 
46 26 64 97 43 14 8 40 34 0 23 68 
45 36 94 57 43 36 79 27 69 92 0 71 
30 64 36 80 27 64 35 78 19 31 50 0 
